unsat
(forall ((A (_ BitVec 1))
         (B (_ BitVec 32))
         (C (_ BitVec 2))
         (D (_ BitVec 32))
         (E (_ BitVec 8))
         (F (_ BitVec 1))
         (G (_ BitVec 1))
         (H (_ BitVec 1))
         (I (_ BitVec 2))
         (J (_ BitVec 2))
         (K (_ BitVec 1))
         (L (_ BitVec 8))
         (M (_ BitVec 2))
         (N (_ BitVec 32))
         (O (_ BitVec 32))
         (P (_ BitVec 1))
         (Q (_ BitVec 2))
         (R (_ BitVec 8))
         (S (_ BitVec 32))
         (T (_ BitVec 2))
         (U (_ BitVec 1))
         (V (_ BitVec 1))
         (W (_ BitVec 2))
         (X (_ BitVec 32))
         (Y (_ BitVec 2))
         (Z (_ BitVec 1))
         (A1 (_ BitVec 1))
         (B1 (_ BitVec 1))
         (C1 (_ BitVec 2))
         (D1 (_ BitVec 3))
         (E1 (_ BitVec 2))
         (F1 (_ BitVec 1))
         (G1 (_ BitVec 1))
         (H1 (_ BitVec 1))
         (I1 (_ BitVec 1))
         (J1 (_ BitVec 5)))
  (! (let ((a!1 (or ((_ bit2bool 0) B)
                    (not ((_ bit2bool 0) D))
                    (not (= G #b1))
                    (not (= ((_ extract 1 1) I) #b1))))
           (a!2 (or (not (= G #b1))
                    ((_ bit2bool 16) B)
                    (not (= ((_ extract 1 1) I) #b1))
                    (not ((_ bit2bool 16) D))))
           (a!3 (or ((_ bit2bool 15) D)
                    (not ((_ bit2bool 15) B))
                    (not (= G #b1))
                    (not (= ((_ extract 1 1) I) #b1))))
           (a!4 (or (not (= G #b1))
                    ((_ bit2bool 31) D)
                    (not (= ((_ extract 1 1) I) #b1))
                    (not (= ((_ extract 31 31) B) #b1))))
           (a!5 (or (not (= G #b1))
                    (= ((_ extract 3 0) B) #xf)
                    (not (= ((_ extract 1 1) I) #b1))
                    (not ((_ bit2bool 3) D))
                    (not ((_ bit2bool 2) D))
                    (not ((_ bit2bool 1) D))
                    (not ((_ bit2bool 0) D))))
           (a!6 (or (not (= G #b1))
                    (not (= ((_ extract 1 1) I) #b1))
                    (= ((_ extract 19 16) D) #xf)
                    (not ((_ bit2bool 19) B))
                    (not ((_ bit2bool 18) B))
                    (not ((_ bit2bool 17) B))
                    (not ((_ bit2bool 16) B))))
           (a!7 (or (not (= G #b1))
                    (not (= ((_ extract 1 1) I) #b1))
                    (= ((_ extract 3 0) D) #xf)
                    (not ((_ bit2bool 0) B))
                    (not ((_ bit2bool 3) B))
                    (not ((_ bit2bool 2) B))
                    (not ((_ bit2bool 1) B))))
           (a!8 (or (not (= G #b1))
                    (not (= ((_ extract 1 1) I) #b1))
                    (= ((_ extract 15 12) D) #xf)
                    (not ((_ bit2bool 15) B))
                    (not ((_ bit2bool 14) B))
                    (not ((_ bit2bool 13) B))
                    (not ((_ bit2bool 12) B))))
           (a!9 (or (not (= G #b1))
                    (not (= ((_ extract 1 1) I) #b1))
                    (= ((_ extract 31 28) D) #xf)
                    (not (= ((_ extract 31 31) B) #b1))
                    (not ((_ bit2bool 30) B))
                    (not ((_ bit2bool 29) B))
                    (not ((_ bit2bool 28) B))))
           (a!10 (or (not (= G #b1))
                     (= ((_ extract 15 12) B) #xf)
                     (not (= ((_ extract 1 1) I) #b1))
                     (not (= ((_ extract 15 12) D) #xf))))
           (a!11 (or (not (= G #b1))
                     (= ((_ extract 19 16) B) #xf)
                     (not (= ((_ extract 1 1) I) #b1))
                     (not ((_ bit2bool 19) D))
                     (not ((_ bit2bool 18) D))
                     (not ((_ bit2bool 17) D))
                     (not ((_ bit2bool 16) D)))))
     (let ((a!12 (and (or (not (= G #b1))
                          (= ((_ extract 31 28) B) #xf)
                          (not ((_ bit2bool 31) D))
                          (not ((_ bit2bool 30) D))
                          (not ((_ bit2bool 29) D))
                          (not ((_ bit2bool 28) D))
                          (not ((_ bit2bool 1) I)))
                      (= A #b1)
                      a!1
                      (or (not (= G #b1))
                          ((_ bit2bool 15) B)
                          (not ((_ bit2bool 1) I))
                          (not ((_ bit2bool 15) D)))
                      a!2
                      (or ((_ bit2bool 31) B)
                          (not (= G #b1))
                          (not ((_ bit2bool 31) D))
                          (not ((_ bit2bool 1) I)))
                      (or (not (= G #b1))
                          ((_ bit2bool 16) D)
                          (not ((_ bit2bool 16) B))
                          (not ((_ bit2bool 1) I)))
                      a!3
                      a!4
                      a!5
                      a!6
                      a!7
                      a!8
                      a!9
                      a!10
                      a!11
                      (or (= I #b00)
                          (not (= G #b1))
                          ((_ bit2bool 0) D)
                          (not ((_ bit2bool 0) B))))))
       (= (INV!slice!1 A
                       B
                       C
                       D
                       E
                       F
                       G
                       H
                       I
                       J
                       K
                       L
                       M
                       N
                       O
                       P
                       Q
                       R
                       S
                       T
                       U
                       V
                       W
                       X
                       Y
                       Z
                       A1
                       B1
                       C1
                       D1
                       E1
                       F1
                       G1
                       H1
                       I1
                       J1)
          a!12)))
     :weight 0))
